data;

param n:=30;
param p:=3;
param r:=[1] 0 [2] 2 [3] 6 [4] 0 [5] 3 [6] 14 [7] 10 [8] 19 [9] 18 [10] 11 [11] 19 [12] 21 [13] 0 [14] 26 [15] 27 [16] 29 [17] 36 [18] 38 [19] 23 [20] 34 [21] 40 [22] 61 [23] 49 [24] 14 [25] 70 [26] 57 [27] 37 [28] 65 [29] 6 [30] 72 ;
param w:=[1] 98 [2] 6 [3] 47 [4] 69 [5] 86 [6] 98 [7] 69 [8] 30 [9] 55 [10] 51 [11] 44 [12] 74 [13] 76 [14] 45 [15] 37 [16] 73 [17] 1 [18] 68 [19] 4 [20] 29 [21] 2 [22] 54 [23] 75 [24] 66 [25] 15 [26] 57 [27] 81 [28] 45 [29] 11 [30] 66 ;

end;
